Route #1: 26
Route #2: 17
Route #3: 4
Route #4: 31 10 38 11
Route #5: 6 51 16 33 1 43
Route #6: 12 40 32 44 3
Route #7: 2 30 48 47 21
Route #8: 53 14 19 54 13 27
Route #9: 52 34 46 8 35 7
Route #10: 45 29 5 15 20 37 36
Route #11: 28 22 42 41 23 49 24
Route #12: 39 9 25 50 18
cost: 754.6485463735256
